evacuation and burners and frequencies/burners.sol
CPLEX 11.2.0: optimal integer solution; objective 1400
4 MIP simplex iterations
0 branch-and-bound nodes
x [*] :=
 1  0
 2  1
 3  0
 4  0
 5  0
 6  0
 7  0
 8  0
 9  0
10  1
;

CPLEX 11.2.0: optimal integer solution; objective 1120
1 MIP simplex iterations
0 branch-and-bound nodes
x [*] :=
 1  0
 2  0
 3  0
 4  1
 5  1
 6  0
 7  0
 8  0
 9  0
10  0
;

